Route #1: 1 32 9 16 29 28 20 25 1
Route #2: 1 8 6 33 22 38 43 12 11 27 10 1
Route #3: 1 3 42 15 39 37 23 7 1
Route #4: 1 5 35 18 13 4 26 40 1
Route #5: 1 14 2 36 19 21 17 24 1
Route #6: 1 30 44 41 31 34 1
cost 1096
